# Problem from http://www.cs.cornell.edu/gomes/QUASIdemo.html
# (n = 10)
# Pattern #2.
# There are _many_ solutions to this problem.
param n := 10;
param m: 1 2 3 4 5 6 7 8 9 10 :=
  1    . . 1 2 3 4 . . . . 
  2    . 1 2 3 . . 4 . . . 
  3    1 2 3 . . . . 4 . . 
  4    2 3 . . . . . . 4 . 
  5    3 . . . . . . . . 4 
  6    5 6 . . . . . . . . 
  7    . 5 6 . . . . . . . 
  8    . . 5 6 . . . . . . 
  9    . . . 5 6 . . . . . 
 10    . . . . 5 6 . . . . 
;
